Name:		mgval_0.45_5D
Optimal value:	-1
#Vehicles:	9
Capacity:	75
Depot Node:	1
#Nodes:		34
#Edges:		29
#Arcs:		63
#Required N:	27
#Required E:	15
#Required A:	34

ReN.	DEMAND	S. COST
N2	11	11
N3	17	17
N4	10	10
N6	29	29
N7	7	7
N8	5	5
N9	4	4
N10	7	7
N11	13	13
N12	12	12
N13	3	3
N14	5	5
N15	21	21
N16	17	17
N18	7	7
N20	6	6
N21	11	11
N23	7	7
N24	17	17
N25	4	4
N26	17	17
N27	9	9
N28	11	11
N29	7	7
N30	8	8
N32	3	3
N34	8	8

ReE.	FROM N.	TO N.	T. COST	DEMAND	S. COST
E15	12	19	4	9	9
E16	13	14	4	8	8
E17	4	11	10	15	15
E18	23	28	5	5	5
E19	6	12	7	11	11
E20	9	10	3	7	7
E21	25	26	9	16	16
E22	14	15	1	6	6
E23	21	27	7	11	11
E24	33	34	1	4	4
E25	28	33	3	8	8
E26	13	19	6	8	8
E27	22	23	1	2	2
E28	19	25	5	6	6
E29	2	13	9	16	16

EDGE	FROM N.	TO N.	T. COST
NrE1	1	2	10
NrE2	4	10	4
NrE3	8	14	2
NrE4	26	27	4
NrE5	23	24	5
NrE6	29	30	4
NrE7	10	16	2
NrE8	3	9	6
NrE9	30	31	6
NrE10	12	13	2
NrE11	26	31	9
NrE12	21	22	5
NrE13	15	22	9
NrE14	16	17	5

ReA.	FROM N.	TO N.	T. COST	DEMAND	S. COST
A30	11	5	4	3	3
A31	10	11	8	6	6
A32	11	10	8	6	6
A33	34	28	2	5	5
A34	19	18	7	14	14
A35	31	32	3	3	3
A36	28	34	2	4	4
A37	32	33	5	5	5
A38	21	15	4	6	6
A39	26	20	3	4	4
A40	24	34	10	8	8
A41	17	24	9	6	6
A42	29	18	9	8	8
A43	29	25	7	5	5
A44	20	14	3	5	5
A45	20	26	3	3	3
A46	10	3	2	4	4
A47	7	1	8	5	5
A48	15	9	5	4	4
A49	17	11	7	5	5
A50	18	12	5	6	6
A51	19	20	6	6	6
A52	33	32	5	5	5
A53	30	25	5	6	6
A54	3	4	3	3	3
A55	25	30	5	5	5
A56	32	31	3	4	4
A57	5	11	4	3	3
A58	5	4	9	12	12
A59	22	28	4	4	4
A60	2	8	8	13	13
A61	16	23	9	16	16
A62	8	9	7	8	8
A63	7	6	9	6	6

ARC	FROM N.	TO N.	T. COST
NrA1	11	17	7
NrA2	27	32	5
NrA3	16	15	5
NrA4	32	27	5
NrA5	25	29	7
NrA6	3	2	5
NrA7	11	24	15
NrA8	1	6	2
NrA9	15	21	4
NrA10	20	19	6
NrA11	6	1	2
NrA12	18	29	9
NrA13	27	28	10
NrA14	3	10	2
NrA15	13	7	5
NrA16	4	3	3
NrA17	34	24	10
NrA18	9	15	5
NrA19	6	7	9
NrA20	14	20	3
NrA21	12	18	5
NrA22	24	11	15
NrA23	24	17	9
NrA24	21	20	2
NrA25	7	13	5
NrA26	28	22	4
NrA27	6	18	9
NrA28	28	27	10
NrA29	1	7	8
